logs/full/feas/full-05-15-2.sol
# Objective value = 71
x0,1_3 0
x0,1_7 0
x0,1_10 0
x0,1_13 0
x0,1_14 0
x0,1_17 0
x0,1_20 0
x0,1_21 0
x0,1_31 0
x0,1_34 0
x0,2_3 1
x0,2_7 0
x0,2_10 0
x0,2_13 0
x0,2_14 0
x0,2_17 0
x0,2_20 0
x0,2_21 0
x0,2_31 0
x0,2_34 0
x0,3_3 0
x0,3_7 0
x0,3_10 0
x0,3_13 1
x0,3_14 0
x0,3_17 0
x0,3_20 0
x0,3_21 0
x0,3_31 0
x0,3_34 0
x0,4_3 0
x0,4_7 0
x0,4_10 0
x0,4_13 0
x0,4_14 0
x0,4_17 0
x0,4_20 1
x0,4_21 0
x0,4_31 0
x0,4_34 0
x0,5_3 0
x0,5_7 0
x0,5_10 0
x0,5_13 0
x0,5_14 0
x0,5_17 0
x0,5_20 0
x0,5_21 0
x0,5_31 0
x0,5_34 1
x1,2_3 0
x1,2_7 0
x1,2_10 0
x1,2_13 0
x1,2_14 0
x1,2_17 0
x1,2_20 0
x1,2_21 0
x1,2_31 0
x1,2_34 0
x1,3_3 0
x1,3_7 0
x1,3_10 0
x1,3_13 0
x1,3_14 0
x1,3_17 0
x1,3_20 0
x1,3_21 0
x1,3_31 0
x1,3_34 0
x1,4_3 0
x1,4_7 0
x1,4_10 0
x1,4_13 0
x1,4_14 0
x1,4_17 0
x1,4_20 0
x1,4_21 0
x1,4_31 0
x1,4_34 0
x1,5_3 0
x1,5_7 0
x1,5_10 0
x1,5_13 0
x1,5_14 0
x1,5_17 0
x1,5_20 0
x1,5_21 0
x1,5_31 0
x1,5_34 0
x2,3_3 0
x2,3_7 0
x2,3_10 1
x2,3_13 0
x2,3_14 0
x2,3_17 0
x2,3_20 0
x2,3_21 0
x2,3_31 0
x2,3_34 0
x2,4_3 0
x2,4_7 0
x2,4_10 0
x2,4_13 0
x2,4_14 0
x2,4_17 1
x2,4_20 0
x2,4_21 0
x2,4_31 0
x2,4_34 0
x2,5_3 0
x2,5_7 0
x2,5_10 0
x2,5_13 0
x2,5_14 0
x2,5_17 0
x2,5_20 0
x2,5_21 0
x2,5_31 1
x2,5_34 0
x3,4_3 0
x3,4_7 1
x3,4_10 0
x3,4_13 0
x3,4_14 0
x3,4_17 0
x3,4_20 0
x3,4_21 0
x3,4_31 0
x3,4_34 0
x3,5_3 0
x3,5_7 0
x3,5_10 0
x3,5_13 0
x3,5_14 0
x3,5_17 0
x3,5_20 0
x3,5_21 1
x3,5_31 0
x3,5_34 0
x4,5_3 0
x4,5_7 0
x4,5_10 0
x4,5_13 0
x4,5_14 1
x4,5_17 0
x4,5_20 0
x4,5_21 0
x4,5_31 0
x4,5_34 0
p0 0
p1 1
p2 3
p3 13
p4 20
p5 34
