logs/full/feas/full-05-15-2.log

Gurobi 8.1.1 (win64) logging started 11/23/19 16:02:53

Changed value of parameter LogFile to logs/full/feas/full-05-15-2.log
   Prev: gurobi.log  Default: 
Changed value of parameter LogToConsole to 0
   Prev: 1  Min: 0  Max: 1  Default: 1
Changed value of parameter TimeLimit to 3600.0
   Prev: 1e+100  Min: 0.0  Max: 1e+100  Default: 1e+100
Optimize a model with 802 rows, 369 columns and 2952 nonzeros
Variable types: 0 continuous, 369 integer (360 binary)
Coefficient statistics:
  Matrix range     [1e+00, 2e+02]
  Objective range  [1e+00, 1e+00]
  Bounds range     [1e+00, 1e+00]
  RHS range        [1e+00, 2e+02]
Presolve time: 0.01s
Presolved: 802 rows, 369 columns, 2952 nonzeros
Variable types: 0 continuous, 369 integer (360 binary)

Root relaxation: objective 3.600000e+01, 80 iterations, 0.00 seconds

    Nodes    |    Current Node    |     Objective Bounds      |     Work
 Expl Unexpl |  Obj  Depth IntInf | Incumbent    BestBd   Gap | It/Node Time

     0     0   36.00000    0   46          -   36.00000      -     -    0s
     0     0   36.00000    0   71          -   36.00000      -     -    0s
     0     0   36.00000    0   45          -   36.00000      -     -    0s
     0     0   36.00000    0   45          -   36.00000      -     -    0s
H    0     0                     110.0000000   36.00000  67.3%     -    0s
H    0     2                     108.0000000   36.00000  66.7%     -    0s
     0     2   36.00000    0   43  108.00000   36.00000  66.7%     -    0s
H   29    28                     107.0000000   36.00000  66.4%   9.3    0s
H  243   226                     104.0000000   36.00000  65.4%   4.3    0s
H  767   593                      96.0000000   56.84926  40.8%   4.7    0s
H  768   564                      90.0000000   56.96591  36.7%   4.7    0s
H  822   547                      88.0000000   62.00000  29.5%   6.1    0s
*  831   513              32      87.0000000   62.00000  28.7%   6.2    0s
H  849   482                      85.0000000   62.00000  27.1%   6.3    0s
H  857   457                      84.0000000   62.00000  26.2%   6.3    0s
*  943   399              38      83.0000000   66.00000  20.5%   6.5    0s
*  991   363              38      82.0000000   67.00000  18.3%   6.5    0s

Explored 1057 nodes (8418 simplex iterations) in 0.76 seconds
Thread count was 4 (of 4 available processors)

Solution count 10: 82 83 84 ... 107

Optimal solution found (tolerance 1.00e-04)
Best objective 8.200000000000e+01, best bound 8.200000000000e+01, gap 0.0000%

Gurobi 8.1.1 (win64) logging started 11/23/19 16:02:54

Changed value of parameter LogFile to logs/full/feas/full-05-15-2.log
   Prev: gurobi.log  Default: 
Changed value of parameter LogToConsole to 0
   Prev: 1  Min: 0  Max: 1  Default: 1
Changed value of parameter TimeLimit to 3600.0
   Prev: 1e+100  Min: 0.0  Max: 1e+100  Default: 1e+100
Optimize a model with 472 rows, 217 columns and 1722 nonzeros
Variable types: 0 continuous, 217 integer (210 binary)
Coefficient statistics:
  Matrix range     [1e+00, 2e+02]
  Objective range  [1e+00, 1e+00]
  Bounds range     [1e+00, 1e+00]
  RHS range        [1e+00, 2e+02]
Presolve time: 0.01s
Presolved: 472 rows, 217 columns, 1722 nonzeros
Variable types: 0 continuous, 217 integer (210 binary)

Root relaxation: objective 2.100000e+01, 93 iterations, 0.00 seconds

    Nodes    |    Current Node    |     Objective Bounds      |     Work
 Expl Unexpl |  Obj  Depth IntInf | Incumbent    BestBd   Gap | It/Node Time

     0     0   21.00000    0   61          -   21.00000      -     -    0s
     0     0   22.03898    0   81          -   22.03898      -     -    0s
     0     0   22.11319    0   80          -   22.11319      -     -    0s
     0     0   26.74006    0   58          -   26.74006      -     -    0s
H    0     0                      86.0000000   26.74006  68.9%     -    0s
H    0     0                      81.0000000   26.74006  67.0%     -    0s
     0     0   26.84711    0   41   81.00000   26.84711  66.9%     -    0s
     0     0   26.84711    0   44   81.00000   26.84711  66.9%     -    0s
     0     0   27.99266    0   44   81.00000   27.99266  65.4%     -    0s
H    0     0                      73.0000000   27.99266  61.7%     -    0s
     0     0   28.25278    0   45   73.00000   28.25278  61.3%     -    0s
     0     0   28.25278    0   44   73.00000   28.25278  61.3%     -    0s
     0     0   29.93462    0   46   73.00000   29.93462  59.0%     -    0s
     0     0   29.94134    0   47   73.00000   29.94134  59.0%     -    0s
     0     0   30.02680    0   49   73.00000   30.02680  58.9%     -    0s
     0     0   30.06331    0   48   73.00000   30.06331  58.8%     -    0s
     0     0   30.07721    0   49   73.00000   30.07721  58.8%     -    0s
     0     0   30.08557    0   50   73.00000   30.08557  58.8%     -    0s
     0     0   30.08557    0   51   73.00000   30.08557  58.8%     -    0s
     0     0   35.55367    0   33   73.00000   35.55367  51.3%     -    0s
     0     0   35.56670    0   33   73.00000   35.56670  51.3%     -    0s
     0     0   35.56670    0   33   73.00000   35.56670  51.3%     -    0s
     0     0   35.76524    0   28   73.00000   35.76524  51.0%     -    0s
     0     0   35.84032    0   34   73.00000   35.84032  50.9%     -    0s
     0     0   35.84538    0   38   73.00000   35.84538  50.9%     -    0s
     0     0   36.21948    0   40   73.00000   36.21948  50.4%     -    0s
     0     0   37.06327    0   40   73.00000   37.06327  49.2%     -    0s
     0     0   37.06327    0   45   73.00000   37.06327  49.2%     -    0s
     0     0   37.07880    0   53   73.00000   37.07880  49.2%     -    0s
     0     0   37.28454    0   56   73.00000   37.28454  48.9%     -    0s
     0     0   37.62144    0   55   73.00000   37.62144  48.5%     -    0s
     0     0   37.62791    0   57   73.00000   37.62791  48.5%     -    0s
     0     0   37.66742    0   59   73.00000   37.66742  48.4%     -    0s
     0     0   37.66991    0   59   73.00000   37.66991  48.4%     -    0s
     0     0   37.68625    0   53   73.00000   37.68625  48.4%     -    0s
     0     0   37.68860    0   57   73.00000   37.68860  48.4%     -    0s
     0     0   37.70103    0   58   73.00000   37.70103  48.4%     -    0s
     0     0   37.70103    0   56   73.00000   37.70103  48.4%     -    0s
     0     0   37.70103    0   47   73.00000   37.70103  48.4%     -    0s
     0     0   37.70103    0   35   73.00000   37.70103  48.4%     -    0s
     0     0   37.70103    0   51   73.00000   37.70103  48.4%     -    0s
     0     0   37.85044    0   45   73.00000   37.85044  48.2%     -    0s
     0     0   37.85564    0   46   73.00000   37.85564  48.1%     -    0s
     0     0   37.88623    0   48   73.00000   37.88623  48.1%     -    0s
     0     0   37.89890    0   45   73.00000   37.89890  48.1%     -    0s
     0     0   37.89987    0   46   73.00000   37.89987  48.1%     -    0s
     0     0   37.94471    0   47   73.00000   37.94471  48.0%     -    0s
     0     0   37.94471    0   42   73.00000   37.94471  48.0%     -    0s
     0     2   37.94471    0   42   73.00000   37.94471  48.0%     -    0s

Cutting planes:
  Gomory: 20
  Cover: 3
  Implied bound: 16
  MIR: 27
  StrongCG: 13

Explored 990 nodes (9903 simplex iterations) in 0.51 seconds
Thread count was 4 (of 4 available processors)

Solution count 3: 73 81 86 

Optimal solution found (tolerance 1.00e-04)
Best objective 7.300000000000e+01, best bound 7.300000000000e+01, gap 0.0000%

Gurobi 8.1.1 (win64) logging started 11/23/19 16:02:54

Changed value of parameter LogFile to logs/full/feas/full-05-15-2.log
   Prev: gurobi.log  Default: 
Changed value of parameter LogToConsole to 0
   Prev: 1  Min: 0  Max: 1  Default: 1
Changed value of parameter TimeLimit to 3600.0
   Prev: 1e+100  Min: 0.0  Max: 1e+100  Default: 1e+100
Optimize a model with 340 rows, 156 columns and 1230 nonzeros
Variable types: 0 continuous, 156 integer (150 binary)
Coefficient statistics:
  Matrix range     [1e+00, 2e+02]
  Objective range  [1e+00, 1e+00]
  Bounds range     [1e+00, 1e+00]
  RHS range        [1e+00, 2e+02]
Presolve time: 0.00s
Presolved: 340 rows, 156 columns, 1230 nonzeros
Variable types: 0 continuous, 156 integer (150 binary)

Root relaxation: objective 1.500000e+01, 95 iterations, 0.00 seconds

    Nodes    |    Current Node    |     Objective Bounds      |     Work
 Expl Unexpl |  Obj  Depth IntInf | Incumbent    BestBd   Gap | It/Node Time

     0     0   15.00000    0   80          -   15.00000      -     -    0s
     0     0   21.07133    0   63          -   21.07133      -     -    0s
     0     0   22.67005    0   49          -   22.67005      -     -    0s
H    0     0                      91.0000000   22.67005  75.1%     -    0s
     0     0   24.87545    0   54   91.00000   24.87545  72.7%     -    0s
     0     0   24.87545    0   54   91.00000   24.87545  72.7%     -    0s
     0     0   25.91119    0   50   91.00000   25.91119  71.5%     -    0s
H    0     0                      75.0000000   25.91119  65.5%     -    0s
     0     0   26.40834    0   50   75.00000   26.40834  64.8%     -    0s
     0     0   26.40926    0   51   75.00000   26.40926  64.8%     -    0s
     0     0   26.47504    0   53   75.00000   26.47504  64.7%     -    0s
     0     0   26.76415    0   54   75.00000   26.76415  64.3%     -    0s
     0     0   26.77163    0   54   75.00000   26.77163  64.3%     -    0s
     0     0   26.77163    0   54   75.00000   26.77163  64.3%     -    0s
     0     0   27.01300    0   46   75.00000   27.01300  64.0%     -    0s
     0     0   27.56281    0   70   75.00000   27.56281  63.2%     -    0s
     0     0   27.62898    0   71   75.00000   27.62898  63.2%     -    0s
     0     0   27.66960    0   71   75.00000   27.66960  63.1%     -    0s
     0     0   27.66960    0   72   75.00000   27.66960  63.1%     -    0s
     0     0   27.89877    0   47   75.00000   27.89877  62.8%     -    0s
     0     0   27.94875    0   75   75.00000   27.94875  62.7%     -    0s
     0     0   27.97153    0   73   75.00000   27.97153  62.7%     -    0s
     0     0   27.97794    0   76   75.00000   27.97794  62.7%     -    0s
     0     0   28.23772    0   63   75.00000   28.23772  62.3%     -    0s
     0     0   28.28011    0   71   75.00000   28.28011  62.3%     -    0s
     0     0   28.38059    0   67   75.00000   28.38059  62.2%     -    0s
     0     0   28.38690    0   67   75.00000   28.38690  62.2%     -    0s
     0     0   29.71238    0   62   75.00000   29.71238  60.4%     -    0s
     0     0   29.77714    0   68   75.00000   29.77714  60.3%     -    0s
     0     0   29.79669    0   69   75.00000   29.79669  60.3%     -    0s
     0     0   29.83158    0   59   75.00000   29.83158  60.2%     -    0s
     0     0   29.83296    0   67   75.00000   29.83296  60.2%     -    0s
     0     0   30.13822    0   53   75.00000   30.13822  59.8%     -    0s
     0     0   30.20381    0   51   75.00000   30.20381  59.7%     -    0s
     0     0   30.25403    0   51   75.00000   30.25403  59.7%     -    0s
     0     0   30.27123    0   52   75.00000   30.27123  59.6%     -    0s
     0     0   30.27125    0   53   75.00000   30.27125  59.6%     -    0s
     0     0   32.40712    0   81   75.00000   32.40712  56.8%     -    0s
     0     0   32.76859    0   83   75.00000   32.76859  56.3%     -    0s
     0     0   32.88206    0   82   75.00000   32.88206  56.2%     -    0s
     0     0   32.94378    0   83   75.00000   32.94378  56.1%     -    0s
     0     0   32.95942    0   86   75.00000   32.95942  56.1%     -    0s
     0     0   32.95959    0   87   75.00000   32.95959  56.1%     -    0s
     0     0   33.12761    0   52   75.00000   33.12761  55.8%     -    0s
     0     0   33.17508    0   70   75.00000   33.17508  55.8%     -    0s
     0     0   33.17825    0   82   75.00000   33.17825  55.8%     -    0s
     0     0   33.25390    0   73   75.00000   33.25390  55.7%     -    0s
     0     0   33.25390    0   71   75.00000   33.25390  55.7%     -    0s
     0     0   33.25390    0   44   75.00000   33.25390  55.7%     -    0s
     0     0   33.25390    0   50   75.00000   33.25390  55.7%     -    0s
     0     0   33.25390    0   43   75.00000   33.25390  55.7%     -    0s
     0     0   33.25390    0   45   75.00000   33.25390  55.7%     -    0s
     0     0   33.25390    0   44   75.00000   33.25390  55.7%     -    0s
     0     0   33.45677    0   45   75.00000   33.45677  55.4%     -    0s
     0     0   33.51699    0   47   75.00000   33.51699  55.3%     -    0s
     0     0   33.53540    0   48   75.00000   33.53540  55.3%     -    0s
     0     0   33.54963    0   52   75.00000   33.54963  55.3%     -    0s
     0     0   34.41769    0   46   75.00000   34.41769  54.1%     -    0s
     0     0   34.80474    0   47   75.00000   34.80474  53.6%     -    0s
     0     0   34.88399    0   50   75.00000   34.88399  53.5%     -    0s
H    0     0                      74.0000000   34.88399  52.9%     -    0s
     0     0   34.88399    0   50   74.00000   34.88399  52.9%     -    0s
     0     0   35.15128    0   50   74.00000   35.15128  52.5%     -    0s
     0     0   35.18868    0   48   74.00000   35.18868  52.4%     -    0s
     0     0   35.18882    0   50   74.00000   35.18882  52.4%     -    0s
     0     0   41.37978    0   39   74.00000   41.37978  44.1%     -    0s
H    0     0                      71.0000000   41.37978  41.7%     -    0s
     0     0   41.40812    0   38   71.00000   41.40812  41.7%     -    0s
     0     0   41.41283    0   38   71.00000   41.41283  41.7%     -    0s
     0     0   42.07242    0   49   71.00000   42.07242  40.7%     -    0s
     0     0   42.07570    0   49   71.00000   42.07570  40.7%     -    0s
     0     0   42.09032    0   55   71.00000   42.09032  40.7%     -    0s
     0     0   42.09032    0   49   71.00000   42.09032  40.7%     -    0s
     0     2   42.09032    0   49   71.00000   42.09032  40.7%     -    0s

Cutting planes:
  Gomory: 5
  Implied bound: 7
  MIR: 45
  StrongCG: 2
  Inf proof: 1

Explored 734 nodes (8882 simplex iterations) in 0.53 seconds
Thread count was 4 (of 4 available processors)

Solution count 4: 71 74 75 91 

Optimal solution found (tolerance 1.00e-04)
Best objective 7.100000000000e+01, best bound 7.100000000000e+01, gap 0.0000%
